Results/Experiment 1 Results/New Benchmark/RES_40/output_p1_0.50_p2_0.00_n_40_01.txt
solutions: 0 nodes: 0  modelTime: 117  solveTime: 9  totalTime: 129  modelSize: 7357  readTime: 3 matchingSize: 0
